\ENCODING=ISO-8859-1
\Problem name: ilog.cplex

Minimize
 obj: x1 + x2 + x3 + x4 + x5 + x6 + x7
Subject To
 c1:  x1 + x15 + x16 + x17 + x18 + x19 + x20 + x21 + x22 + x23 + x24 + x25
      + x26 + x27 + x28 + x29 + x30 + x31 + x32 + x33 + x34 + x35 + x36 + x37
      + x38 + x39 + x40 + x41 + x42 + x43 + x44 + x45 + x46 + x47 + x48 + x49
      + x50 + x51 + x52 + x53 + x54 + x55 + x56 + x57 + x58 + x59 + x60 + x61
      + x62 + x63 + x64 + x65 + x66 + x67 + x68 + x69 + x70 + x71 + x72 + x73
      + x74 + x75 + x76 + x77 + x78 + x79 + x80 + x81 + x82 + x83 + x84 + x85
      + x86 + x87 + x88 + x89 + x90 + x91 + x92 + x93 + x94 + x95 + x96 + x97
      + x98 + x99 + x100 + x101 + x102 + x103 + x104 + x105 + x106 + x107
      + x108 + x109 + x110 + x111 + x112 + x113 + x114 + x115 + x116 + x117
      + x118 + x119 + x120 + x121 + x122 + x123 + x124 + x125 + x126 + x127
      + x128 + x129 + x130 + x131 + x132 + x133 + x134 + x135 + x136 + x137
      + x138 + x139 + x140 + x141 + x142 + x143 + x144 + x145 + x146 >= 1
 c3:  x2 + x15 + x16 + x19 + x20 + x24 + x25 + x26 + x27 + x29 + x30 + x32
      + x33 + x34 + x35 + x36 + x39 + x43 + x44 + x45 + x46 + x47 + x49 + x50
      + x52 + x53 + x55 + x56 + x57 + x58 + x61 + x62 + x64 + x68 + x69 + x72
      + x75 + x76 + x77 + x78 + x80 + x82 + x83 + x84 + x85 + x86 + x87 + x88
      + x89 + x93 + x94 + x95 + x97 + x98 + x99 + x100 + x101 + x103 + x108
      + x110 + x111 + x112 + x113 + x114 + x115 + x118 + x119 + x120 + x121
      + x123 + x124 + x125 + x127 + x128 + x130 + x131 + x133 + x134 + x135
      + x136 + x140 + x143 + x144 + x145 + x279 + x280 + x281 + x282 + x283
      + x284 + x285 + x286 + x287 + x288 + x289 + x290 >= 1
 c5:  x3 + x15 + x16 + x17 + x18 + x19 + x21 + x22 + x23 + x24 + x25 + x27
      + x30 + x32 + x34 + x35 + x36 + x41 + x42 + x43 + x44 + x46 + x48 + x49
      + x50 + x56 + x57 + x59 + x60 + x63 + x65 + x66 + x67 + x71 + x75 + x76
      + x78 + x81 + x92 + x97 + x99 + x106 + x107 + x112 + x116 + x118 + x125
      + x126 + x130 + x131 + x132 + x134 + x137 + x142 + x281 + x285 + x286
      + x287 + x288 + x291 + x292 + x293 + x294 + x295 + x296 + x297 + x298
      + x299 + x300 + x301 + x302 + x303 >= 1
 c7:  x4 + x16 + x17 + x19 + x21 + x22 + x23 + x25 + x29 + x31 + x33 + x34
      + x38 + x40 + x41 + x47 + x49 + x50 + x51 + x53 + x54 + x55 + x58 + x60
      + x61 + x62 + x64 + x66 + x67 + x70 + x72 + x73 + x74 + x82 + x85 + x86
      + x88 + x90 + x93 + x94 + x96 + x98 + x101 + x102 + x103 + x105 + x106
      + x109 + x111 + x115 + x117 + x119 + x120 + x122 + x128 + x132 + x136
      + x138 + x139 + x140 + x141 + x143 + x144 + x145 + x279 + x281 + x282
      + x283 + x285 + x286 + x290 + x291 + x292 + x294 + x296 + x298 + x299
      + x300 + x301 + x317 + x318 + x319 + x320 + x321 + x322 + x323 >= 1
 c9:  x5 + x18 + x22 + x23 + x28 + x31 + x32 + x33 + x36 + x41 + x43 + x44
      + x54 + x58 + x62 + x63 + x65 + x68 + x69 + x71 + x72 + x74 + x77 + x81
      + x85 + x88 + x90 + x100 + x102 + x107 + x110 + x114 + x117 + x126 + x133
      + x135 + x139 + x146 + x296 + x297 + x317 + x319 + x321 + x322 + x331
      >= 1
 c11: x6 + x20 + x28 + x37 + x38 + x39 + x45 + x48 + x73 + x79 + x91 + x95
      + x104 + x129 + x279 + x280 + x283 + x284 + x289 + x295 + x318 + x319
      + x331 + x333 + x334 + x335 + x336 + x337 + x338 + x339 >= 1
 c13: x7 + x17 + x26 + x27 + x47 + x51 + x53 + x54 + x56 + x59 + x64 + x68
      + x82 + x83 + x84 + x87 + x89 + x90 + x92 + x96 + x101 + x109 + x111
      + x116 + x117 + x120 + x121 + x124 + x137 + x142 + x146 + x282 + x287
      + x290 + x291 + x292 + x293 + x294 + x298 + x299 + x300 + x301 + x302
      + x303 + x317 + x318 + x320 + x322 + x323 + x334 + x336 + x338 >= 1
 c15: x15 + x16 + x17 + x18 + x19 + x20 + x21 + x22 + x23 + x24 + x25 + x26
      + x27 + x28 + x29 + x30 + x31 + x32 + x33 + x34 + x35 + x36 + x37 + x38
      + x39 + x40 + x41 + x42 + x43 + x44 + x45 + x46 + x47 + x48 + x49 + x50
      + x51 + x52 + x53 + x54 + x55 + x56 + x279 + x280 + x281 + x291 + x292
      + x293 + x294 + x295 + x296 + x297 + x317 + x318 + x331 + x333 + x334
      <= 1
 c17: x57 + x58 + x59 + x60 + x61 + x62 + x63 + x64 + x65 + x66 + x67 + x68
      + x69 + x70 + x71 + x72 + x73 + x74 + x75 + x76 + x77 + x78 + x79 + x80
      + x81 + x82 + x83 + x84 + x85 + x86 + x87 + x88 + x89 + x90 + x91 + x92
      + x93 + x94 + x95 + x96 + x97 + x282 + x283 + x284 + x285 + x298 + x299
      + x319 + x320 + x335 + x336 <= 1
 c19: x98 + x99 + x100 + x101 + x102 + x103 + x104 + x105 + x106 + x107 + x108
      + x109 + x110 + x111 + x112 + x113 + x114 + x115 + x116 + x117 + x118
      + x119 + x120 + x121 + x122 + x123 + x286 + x287 + x300 + x301 + x321
      + x337 + x338 <= 1
 c21: x124 + x125 + x126 + x127 + x128 + x129 + x130 + x131 + x132 + x133
      + x134 + x135 + x136 + x137 + x138 + x139 + x140 + x141 + x142 + x143
      + x144 + x145 + x146 + x288 + x289 + x290 + x302 + x303 + x322 + x323
      + x339 <= 1
End
